c This Formular is generated by mcnf
c
c  horn? no 
c  forced? no 
c  mixed sat? no 
c  clause length = 3 
c
p cnf 20 91 
D A 0
-A -D 0
-E B 0
-B E 0
G C 0
-B C 0
-E C 0
-B -G C 0
-E -G C 0
-E -B C 0
-C -B G 0
G -B 0
-E -B G 0
-C -E G 0
G -E 0
-C -G B 0
-E -G B 0
-C -E B 0
-C -G E 0
-B -G E 0
-C -B E 0
%
0
